h 1 2 0
h 3 -2 0
h 1 4 0
h 4 5 -6 0
1 -5 0
h 4 3 7 0
h -6 3 0
h 6 -3 0
h 8 3 -1 0
1 -8 0
h 3 -6 9 0
h 6 4 10 0
h 10 -4 -6 0
1 -10 0
h -3 -1 0
h 11 -6 -4 0
1 -11 0
h -2 -3 12 0
h 3 13 6 0
1 -13 0
h 14 -3 4 0
h 3 14 4 0
1 -14 0
h -2 -3 15 0
h 2 -3 16 0
h 17 1 -3 0
1 -17 0
h -3 -4 0
h -4 3 0
